(set-logic QF_S)
(declare-fun J () String)
(declare-fun T () String)
(declare-fun I () String)
(declare-fun K () String)
(declare-fun R () String)
(declare-fun V () String)
(declare-fun H () String)
(declare-fun L () String)
(declare-fun O () String)
(declare-fun M () String)
(declare-fun P () String)
(assert (= (str.++  J "aaa" I "aa" J "aaa" I "ab" J L K "b" P R "b" V)  (str.++  "a" H I M L M L "b" O R O R "b" T T "baa") ))
(check-sat)
(get-model)
